language Essence 1.3

letting bot_end be [794, 13, 609, 1, 4, 102, 671, 148, 744, 704, 694, 787, 745, 772, 39, 750, 15; int(1..17)]
letting bot_start be [180, 634, 101, 462, 517, 758, 106, 799, 267, 244, 133, 290, 62, 215, 650, 203, 505; int(1..17)]
letting buffer_col be 2
letting buffer_row be 2
letting corridor_size be 2
letting n_shelves_col be 1
letting n_shelves_row be 32
letting shelf_col_size be 2
letting shelf_row_size be 1
